Minimize
  - 68 y_0 - 75 y_1 - 119 y_2 - 69 y_3 - 61 y_4 - 25 y_5 - 87 y_6 - 73 y_7
   - 67 y_8 - 97 y_9 - 67 y_10 - 63 y_11 - 105 y_12 - 82 y_13 - 26 y_14
   - 70 y_15 - 101 y_16 - 86 y_17 - 65 y_18 - 86 y_19 - 71 y_20 - 28 y_21
   - 27 y_22 - 49 y_23 - 96 y_24 - 64 y_25 - 71 y_26 - 65 y_27 - 70 y_28
   - 41 y_29 - 4 y_30 - 77 y_31 - 106 y_32 - 86 y_33 - 125 y_34 - 92 y_35
   - 103 y_36 - 55 y_37 - 76 y_38 - 51 y_39 - 79 y_40 - 82 y_41 - 102 y_42
   - 65 y_43 - 106 y_44 - 38 y_45 - 110 y_46 - 110 y_47 - 71 y_48 - 80 y_49
   - 71 y_50 - 120 y_51 - 97 y_52 - 71 y_53 - 87 y_54 - 72 y_55 - 40 y_56
   - 110 y_57 - 72 y_58 - 105 y_59 - 68 y_60 - 63 y_61 - 70 y_62 - 73 y_63
   - 52 y_64 - 55 y_65 - 49 y_66 - 102 y_67 - 114 y_68 - 122 y_69 - 73 y_70
   - 35 y_71 - 110 y_72 - 64 y_73 - 99 y_74 - 114 y_76 - 47 y_77 - 88 y_78
   - 70 y_79 - 111 y_80 - 58 y_81 - 57 y_82 - 38 y_83 - 58 y_84 - 85 y_85
   - 78 y_86 - 74 y_87 - 75 y_88 - 40 y_89 - 93 y_90 - 86 y_91 - 46 y_92
   - 77 y_93 - 65 y_94 - 23 y_95 - 92 y_96 - 76 y_97 - 80 y_98 - 37 y_99
   + 7354 Constant
Subject To
 c_0: y_58 = 1
 c_1_0: y_0 + y_3 + y_10 + y_27 + y_38 + y_50 + y_62 + y_70 + y_93 >= 1
 c_1_1: y_1 + y_13 + y_53 + y_79 + y_98 >= 1
 c_1_2: y_2 + y_34 + y_57 + y_68 + y_69 + y_72 >= 1
 c_1_3: y_0 + y_3 + y_38 + y_50 + y_62 + y_70 >= 1
 c_1_4: y_4 + y_26 >= 1
 c_1_5: y_5 + y_14 + y_21 + y_95 >= 1
 c_1_6: y_6 + y_19 + y_41 + y_90 >= 1
 c_1_7: y_7 + y_25 + y_55 >= 1
 c_1_8: y_8 + y_11 + y_43 + y_60 + y_73 + y_87 + y_88 >= 1
 c_1_9: y_9 + y_16 + y_17 + y_42 + y_74 + y_78 >= 1
 c_1_10: y_0 + y_10 + y_27 + y_48 + y_62 + y_70 + y_97 >= 1
 c_1_11: y_8 + y_11 + y_18 + y_43 + y_60 + y_73 + y_82 + y_84 + y_94 >= 1
 c_1_12: y_12 + y_36 + y_44 + y_52 + y_59 >= 1
 c_1_13: y_1 + y_13 + y_98 >= 1
 c_1_14: y_5 + y_14 + y_21 >= 1
 c_1_15: y_15 + y_18 + y_20 + y_28 + y_31 + y_53 + y_58 + y_61 + y_63
   + y_94 >= 1
 c_1_16: y_9 + y_16 + y_74 >= 1
 c_1_17: y_9 + y_17 + y_54 + y_78 >= 1
 c_1_18: y_11 + y_15 + y_18 + y_20 + y_43 + y_58 + y_73 + y_82 + y_84
   + y_94 >= 1
 c_1_19: y_6 + y_19 + y_41 + y_90 >= 1
 c_1_20: y_15 + y_18 + y_20 + y_31 + y_43 + y_58 + y_63 + y_73 + y_86
   + y_94 >= 1
 c_1_21: y_5 + y_14 + y_21 + y_99 >= 1
 c_1_22: y_22 + y_95 >= 1
 c_1_23: y_23 + y_56 + y_77 >= 1
 c_1_24: y_24 + y_96 >= 1
 c_1_25: y_7 + y_25 + y_55 >= 1
 c_1_26: y_4 + y_26 + y_48 >= 1
 c_1_27: y_0 + y_10 + y_27 + y_48 + y_62 + y_70 >= 1
 c_1_28: y_15 + y_28 + y_53 + y_58 + y_61 + y_63 >= 1
 c_1_29: y_29 + y_45 + y_99 >= 1
 c_1_30: y_30 + y_75 >= 1
 c_1_31: y_15 + y_20 + y_31 + y_41 + y_58 + y_63 >= 1
 c_1_32: y_32 + y_57 + y_72 >= 1
 c_1_33: y_33 + y_85 >= 1
 c_1_34: y_2 + y_34 + y_69 >= 1
 c_1_35: y_35 + y_52 >= 1
 c_1_36: y_12 + y_36 + y_44 + y_59 + y_80 >= 1
 c_1_37: y_37 + y_65 + y_81 >= 1
 c_1_38: y_0 + y_3 + y_38 + y_40 + y_62 + y_70 + y_93 >= 1
 c_1_39: y_39 + y_64 + y_66 + y_82 + y_84 >= 1
 c_1_40: y_38 + y_40 + y_50 >= 1
 c_1_41: y_6 + y_19 + y_31 + y_41 + y_63 >= 1
 c_1_42: y_9 + y_42 + y_46 + y_47 + y_67 >= 1
 c_1_43: y_8 + y_11 + y_18 + y_20 + y_43 + y_60 + y_73 + y_82 + y_84 + y_94
   >= 1
 c_1_44: y_12 + y_36 + y_44 + y_59 + y_76 + y_80 >= 1
 c_1_45: y_29 + y_45 >= 1
 c_1_46: y_42 + y_46 + y_47 + y_67 >= 1
 c_1_47: y_42 + y_46 + y_47 + y_67 >= 1
 c_1_48: y_10 + y_26 + y_27 + y_48 + y_97 >= 1
 c_1_49: y_49 >= 1
 c_1_50: y_0 + y_3 + y_40 + y_50 + y_62 >= 1
 c_1_51: y_51 + y_76 + y_80 >= 1
 c_1_52: y_12 + y_35 + y_52 + y_59 >= 1
 c_1_53: y_1 + y_15 + y_28 + y_53 + y_61 + y_63 + y_79 >= 1
 c_1_54: y_17 + y_54 + y_78 + y_86 >= 1
 c_1_55: y_7 + y_25 + y_55 >= 1
 c_1_56: y_23 + y_56 >= 1
 c_1_57: y_2 + y_32 + y_57 + y_68 + y_72 >= 1
 c_1_58: y_15 + y_18 + y_20 + y_28 + y_31 + y_58 + y_63 + y_73 + y_94 >= 1
 c_1_59: y_12 + y_36 + y_44 + y_52 + y_59 >= 1
 c_1_60: y_8 + y_11 + y_43 + y_60 + y_73 + y_87 + y_88 >= 1
 c_1_61: y_15 + y_28 + y_53 + y_61 >= 1
 c_1_62: y_0 + y_3 + y_10 + y_27 + y_38 + y_50 + y_62 + y_70 + y_93 >= 1
 c_1_63: y_15 + y_20 + y_28 + y_31 + y_41 + y_53 + y_58 + y_63 >= 1
 c_1_64: y_39 + y_64 + y_66 >= 1
 c_1_65: y_37 + y_65 + y_81 >= 1
 c_1_66: y_39 + y_64 + y_66 + y_82 + y_84 >= 1
 c_1_67: y_42 + y_46 + y_47 + y_67 + y_72 >= 1
 c_1_68: y_2 + y_57 + y_68 + y_69 + y_72 >= 1
 c_1_69: y_2 + y_34 + y_68 + y_69 >= 1
 c_1_70: y_0 + y_3 + y_10 + y_27 + y_38 + y_62 + y_70 + y_93 >= 1
 c_1_71: y_71 >= 1
 c_1_72: y_2 + y_32 + y_57 + y_67 + y_68 + y_72 >= 1
 c_1_73: y_8 + y_11 + y_18 + y_20 + y_43 + y_58 + y_60 + y_73 + y_82 + y_84
   + y_94 >= 1
 c_1_74: y_9 + y_16 + y_74 >= 1
 c_1_75: y_30 + y_75 >= 1
 c_1_76: y_44 + y_51 + y_76 + y_80 >= 1
 c_1_77: y_23 + y_77 + y_83 + y_89 + y_92 >= 1
 c_1_78: y_9 + y_17 + y_54 + y_78 >= 1
 c_1_79: y_1 + y_53 + y_79 + y_98 >= 1
 c_1_80: y_36 + y_44 + y_51 + y_76 + y_80 >= 1
 c_1_81: y_37 + y_65 + y_81 >= 1
 c_1_82: y_11 + y_18 + y_39 + y_43 + y_66 + y_73 + y_82 + y_84 + y_94 >= 1
 c_1_83: y_77 + y_83 + y_89 + y_92 >= 1
 c_1_84: y_11 + y_18 + y_39 + y_43 + y_66 + y_73 + y_82 + y_84 + y_94 >= 1
 c_1_85: y_33 + y_85 + y_97 >= 1
 c_1_86: y_20 + y_54 + y_86 + y_87 >= 1
 c_1_87: y_8 + y_60 + y_86 + y_87 + y_88 >= 1
 c_1_88: y_8 + y_60 + y_87 + y_88 >= 1
 c_1_89: y_77 + y_83 + y_89 + y_92 >= 1
 c_1_90: y_6 + y_19 + y_90 >= 1
 c_1_91: y_91 >= 1
 c_1_92: y_77 + y_83 + y_89 + y_92 >= 1
 c_1_93: y_0 + y_38 + y_62 + y_70 + y_93 + y_97 >= 1
 c_1_94: y_11 + y_15 + y_18 + y_20 + y_43 + y_58 + y_73 + y_82 + y_84
   + y_94 >= 1
 c_1_95: y_5 + y_22 + y_95 >= 1
 c_1_96: y_24 + y_96 >= 1
 c_1_97: y_10 + y_48 + y_85 + y_93 + y_97 >= 1
 c_1_98: y_1 + y_13 + y_79 + y_98 >= 1
 c_1_99: y_21 + y_29 + y_99 >= 1
Bounds
 Constant = 1
Binaries
 y_0 y_1 y_2 y_3 y_4 y_5 y_6 y_7 y_8 y_9 y_10 y_11 y_12 y_13 y_14 y_15 y_16
 y_17 y_18 y_19 y_20 y_21 y_22 y_23 y_24 y_25 y_26 y_27 y_28 y_29 y_30 y_31
 y_32 y_33 y_34 y_35 y_36 y_37 y_38 y_39 y_40 y_41 y_42 y_43 y_44 y_45 y_46
 y_47 y_48 y_49 y_50 y_51 y_52 y_53 y_54 y_55 y_56 y_57 y_58 y_59 y_60 y_61
 y_62 y_63 y_64 y_65 y_66 y_67 y_68 y_69 y_70 y_71 y_72 y_73 y_74 y_75 y_76
 y_77 y_78 y_79 y_80 y_81 y_82 y_83 y_84 y_85 y_86 y_87 y_88 y_89 y_90 y_91
 y_92 y_93 y_94 y_95 y_96 y_97 y_98 y_99
End
